50
129650

6312 5766
6891 6379
664 1646
4243 5224
8377 7668
7962 8606
6635 6747
4970 4887
7809 6995
5867 5031
9559 9214
3579 4371
8269 8309
2282 3192
4618 4620
2290 1513
1554 1171
4105 4233
8726 8322
9862 10309
2408 1663
5082 5203
1619 1300
1209 1877
5410 6298
7736 7842
9172 8588
1650 2623
5797 6434
7114 7349
5181 5301
3351 3554
9053 8642
7816 7727
7254 6441
8542 8763
4268 4902
1021 809
8990 8639
231 1179
1529 1024
6535 6129
19 189
8087 7474
5459 6141
3997 3379
5329 4396
1032 1286
3131 3475
9299 8831
